177
Route #1: 1 83 
Route #2: 2 74 
Route #3: 3 81 130 
Route #4: 4 77 
Route #5: 5 58 
Route #6: 6 91 
Route #7: 7 60 
Route #8: 8 64 125 
Route #9: 9 51 114 
Route #10: 10 63 124 
Route #11: 11 109 
Route #12: 12 45 
Route #13: 13 71 103 
Route #14: 14 55 99 
Route #15: 15 93 
Route #16: 16 37 118 
Route #17: 17 95 
Route #18: 18 43 121 
Route #19: 19 76 119 
Route #20: 20 52 
Route #21: 21 90 
Route #22: 22 28 100 
Route #23: 23 59 102 
Route #24: 24 47 98 
Route #25: 25 57 133 
Route #26: 26 72 94 140 
Route #27: 27 69 116 
Route #28: 29 48 110 141 
Route #29: 30 46 
Route #30: 31 85 
Route #31: 32 66 138 
Route #32: 33 80 127 162 
Route #33: 34 104 155 
Route #34: 35 62 92 135 174 
Route #35: 36 70 88 123 
Route #36: 38 126 
Route #37: 39 84 105 
Route #38: 40 122 
Route #39: 41 
Route #40: 42 73 120 
Route #41: 44 
Route #42: 49 
Route #43: 50 96 
Route #44: 53 89 189 
Route #45: 54 139 
Route #46: 56 144 
Route #47: 61 
Route #48: 65 101 142 
Route #49: 67 79 132 166 
Route #50: 68 113 145 
Route #51: 75 108 171 
Route #52: 78 117 168 
Route #53: 82 107 176 
Route #54: 86 131 163 
Route #55: 87 158 
Route #56: 97 169 
Route #57: 106 152 186 
Route #58: 111 221 
Route #59: 112 170 
Route #60: 115 233 
Route #61: 128 202 
Route #62: 129 161 227 261 
Route #63: 134 193 
Route #64: 136 192 240 
Route #65: 137 165 228 276 
Route #66: 143 177 206 
Route #67: 146 196 246 
Route #68: 147 209 234 
Route #69: 148 223 
Route #70: 149 204 245 
Route #71: 150 225 
Route #72: 151 167 197 215 241 287 
Route #73: 153 187 232 249 274 
Route #74: 154 224 
Route #75: 156 203 277 
Route #76: 157 172 244 
Route #77: 159 239 
Route #78: 160 251 
Route #79: 164 217 293 
Route #80: 173 218 275 
Route #81: 175 216 271 311 
Route #82: 178 236 260 
Route #83: 179 248 
Route #84: 180 210 284 
Route #85: 181 278 
Route #86: 182 285 
Route #87: 183 259 
Route #88: 184 214 279 329 
Route #89: 185 264 
Route #90: 188 238 283 
Route #91: 190 282 
Route #92: 191 290 
Route #93: 194 280 
Route #94: 195 255 325 
Route #95: 198 250 269 318 
Route #96: 199 
Route #97: 200 
Route #98: 201 266 300 
Route #99: 205 
Route #100: 207 268 326 
Route #101: 208 265 342 
Route #102: 211 256 339 
Route #103: 212 297 
Route #104: 213 292 332 
Route #105: 219 291 
Route #106: 220 257 299 323 362 
Route #107: 222 302 
Route #108: 226 286 
Route #109: 229 281 309 370 
Route #110: 230 
Route #111: 231 
Route #112: 235 
Route #113: 237 254 
Route #114: 242 273 324 366 
Route #115: 243 288 369 
Route #116: 247 
Route #117: 252 
Route #118: 253 334 
Route #119: 258 360 
Route #120: 262 298 379 
Route #121: 263 313 380 
Route #122: 267 386 
Route #123: 270 356 
Route #124: 272 355 
Route #125: 289 361 389 
Route #126: 294 373 
Route #127: 295 349 394 424 
Route #128: 296 395 
Route #129: 301 333 383 422 
Route #130: 303 341 391 438 
Route #131: 304 387 404 
Route #132: 305 344 376 400 434 
Route #133: 306 335 377 407 440 
Route #134: 307 392 
Route #135: 308 354 442 
Route #136: 310 406 
Route #137: 312 384 417 
Route #138: 314 367 420 
Route #139: 315 368 398 444 
Route #140: 316 409 
Route #141: 317 353 419 448 
Route #142: 319 371 388 450 
Route #143: 320 375 439 
Route #144: 321 413 
Route #145: 322 401 
Route #146: 327 397 
Route #147: 328 399 426 
Route #148: 330 414 
Route #149: 331 365 437 
Route #150: 336 403 430 
Route #151: 337 423 
Route #152: 338 415 
Route #153: 340 410 
Route #154: 343 382 418 
Route #155: 345 435 
Route #156: 346 381 443 
Route #157: 347 428 
Route #158: 348 412 
Route #159: 350 427 
Route #160: 351 441 
Route #161: 352 436 
Route #162: 357 378 445 
Route #163: 358 431 
Route #164: 359 425 
Route #165: 363 393 432 
Route #166: 364 433 
Route #167: 372 421 
Route #168: 374 449 
Route #169: 385 
Route #170: 390 
Route #171: 396 
Route #172: 402 447 
Route #173: 405 
Route #174: 408 446 
Route #175: 411 
Route #176: 416 
Route #177: 429 
Cost 177.0
